NAME: Tnm100
COMMENT: Recalculated optimal tour for Tnm100, using concorde got a tour of length 1398070.0
TYPE: TOUR
DIMENSION: 100
TOUR_SECTION:
1
78
75
72
80
83
69
66
63
60
57
54
51
48
45
42
39
36
33
30
27
24
21
18
15
12
9
6
3
77
74
79
71
68
65
62
82
85
88
91
94
59
56
53
50
47
44
41
38
35
32
29
26
23
20
17
14
11
8
5
2
76
73
70
81
84
67
64
61
58
55
52
49
46
43
40
87
90
93
96
99
97
100
98
95
92
89
86
37
34
31
28
25
22
19
16
13
10
7
4 
-1
EOF
